tsp_instances/TSP50/instance7.tsp
NODE_COORD_SECTION
0 157 47
1 195 22
2 29 120
3 3 27
4 194 17
5 185 136
6 60 134
7 89 109
8 99 37
9 147 195
10 134 137
11 185 113
12 131 104
13 174 115
14 81 179
15 21 114
16 11 161
17 143 69
18 22 144
19 171 52
20 9 149
21 94 179
22 103 55
23 190 173
24 60 136
25 146 163
26 172 130
27 103 3
28 23 89
29 72 31
30 83 168
31 99 122
32 118 63
33 183 111
34 85 176
35 78 152
36 143 55
37 121 134
38 112 62
39 120 60
40 85 94
41 118 115
42 88 129
43 198 106
44 188 165
45 166 78
46 127 198
47 114 29
48 35 141
49 42 59
