tsp_instances/TSP50/instance7.opt.tour
TOUR_SECTION
1
5
2
20
46
44
12
34
14
27
6
45
24
26
10
47
22
35
15
31
36
7
25
49
19
17
21
3
16
29
50
4
30
28
48
9
23
39
40
33
41
8
43
32
38
11
42
13
18
37
-1